p cnf 26 76
1 2 3 4 0
5 6 7 8 0
9 10 11 12 0
13 14 15 16 0
17 18 19 0
20 21 22 0
23 24 25 0
-1 -5 0
-2 -6 0
-3 -7 0
-4 -8 0
-1 -9 0
-2 -10 0
-3 -11 0
-4 -12 0
-1 -13 0
-2 -14 0
-3 -15 0
-4 -16 0
-5 -9 0
-6 -10 0
-7 -11 0
-8 -12 0
-5 -13 0
-6 -14 0
-7 -15 0
-8 -16 0
-9 -13 0
-10 -14 0
-11 -15 0
-12 -16 0
-17 -20 0
-18 -21 0
-19 -22 0
-17 -23 0
-18 -24 0
-19 -25 0
-20 -23 0
-21 -24 0
-22 -25 0
3 -10 17 0
3 -11 18 0
3 -12 19 0
2 -9 17 0
2 -11 17 0
2 -12 18 0
1 -9 18 0
1 -10 17 0
1 -12 17 0
0 -9 19 0
0 -10 18 0
0 -11 17 0
-1 -10 20 0
-1 -11 21 0
-1 -12 22 0
-2 -9 20 0
-2 -11 20 0
-2 -12 21 0
-3 -9 21 0
-3 -10 20 0
-3 -12 20 0
-4 -9 22 0
-4 -10 21 0
-4 -11 20 0
-5 -10 23 0
-5 -11 24 0
-5 -12 25 0
-6 -9 23 0
-6 -11 23 0
-6 -12 24 0
-7 -9 24 0
-7 -10 23 0
-7 -12 23 0
-8 -9 25 0
-8 -10 24 0
-8 -11 23 0
